# Defining essential variables

units lj 
dimension 3
atom_style atomic
boundary p p p 



# Creating simulation box

region my_box block 0 20 0 20 0 20
create_box 1 my_box




# Creating the narrow regions and generating the particle such that initial particle distribution remains a delta function distribution

region my_region block 10 11 10 11 10 11
create_atoms 1 random 1000 8009 my_region




# Setting up interaction parameters and the other variables

mass 1 1.0
pair_style none



# Creating initial velocity distribution at particular temperature

velocity all create 1.0 12345 




# Setting up Langevin thermostat and fixing integrator

fix my_thermo_stat all langevin 1  1  0.1 89080
fix integrator all nve 




# Setting up time steps in lj unit achieved by each simulation steps
timestep 0.005




# Setting up the parameters to be printed on the terminal

thermo 100
thermo_style custom step temp ke pe press




# Exporting the data file 

dump 1 all custom 10 simulation_data.lammpstrj id x y z vx vy vz 




# Running the simulation

run 10000
