# Binary DPD simulation: A and B in distinct regions to study mixing/demixing

variable T    equal 1.0
variable rc   equal 1.0
variable rcD  equal 1.0

units        lj
boundary     p p p
atom_style   atomic
dimension    3
newton       on
comm_modify  vel yes

### Define simulation box and initialize particle distribution
variable     Lx equal 20
variable     Ly equal 10
variable     Lz equal 10
#lattice      sc 3.0 # while using this command make sure that the full orthogonal box is generated otherwise the density would be much greater than expected 
region       box_total block 0 ${Lx} 0 ${Ly} 0 ${Lz}
create_box   2 box_total  # Binary system with 2 types of particles

# Regions for particle distribution
region       region_A block 0 10 0 ${Ly} 0 ${Lz}
region       region_B block 10 20 0 ${Ly} 0 ${Lz}

# Create particles in each region
create_atoms 1 random 3000 12345 region_A  # Type A: 3000 atoms in region A
create_atoms 2 random 3000 67890 region_B  # Type B: 3000 atoms in region B

mass  1 1.0  # Mass of type A particles
mass  2 1.0  # Mass of type B particles

### Define DPD pair style
pair_style   dpd ${T} ${rcD} 3854262
pair_coeff   1 1 25.0 4.5 1.0  # Type A-A interactions
pair_coeff   1 2 45.0 4.5 1.0  # Type A-B interactions (adjust as needed)
pair_coeff   2 2 25.0 4.5 1.0  # Type B-B interactions


run_style    verlet

# Initial velocities
velocity all create ${T} 12345 dist gaussian


thermo_style custom step time temp press
thermo       100

### Run simulation
fix 1 all nve

# Equilibration phase
run          50000

# Reset timestep and compute MSD
reset_timestep 0
compute msd_all all msd
fix msd_output all ave/time 100 1 100 c_msd_all file msd.dat mode vector

# Output trajectory for visualization
dump 2 all custom 100 data.lammpstrj id type x y z vx vy vz

# Production run
run          50000

