# Initialize
units lj
atom_style molecular
boundary p p p
pair_style hybrid lj/cut 2.5 gauss 2.5

# Define the simulation box
region box block 0 90.0 0 90.0 0 90.0
create_box 2 box


# Define interactions between atoms
pair_coeff 1 1 lj/cut 1.0 1.0 2.5       # Lennard-Jones interactions
pair_coeff 1 2 gauss 0.5 1.0 2.5        # Gaussian potential for mixed interactions
pair_coeff 2 2 gauss 0.5 1.0 2.5        # Gaussian potential for peripheral atoms

# Define masses
mass 1 1.0                               # Central atom mass
mass 2 0.01                              # Peripheral atom mass



# molecule h2omol H2O-SPCFw.mol
molecule patchy_part patchy_particle.mol

create_atoms 0 random 1050 87910 NULL mol patchy_part 454756 overlap 1.5 maxtry 50

# Grouping atoms into the rigid body
group rigid_molecule  type 1 2        # Group all atoms with molecule ID 1








# Exclude intramolecular interactions
neigh_modify exclude molecule/intra rigid_molecule every 1 delay 0 check no

# Replicate the molecule across the simulation box


# Define rigid body constraint
fix rigid_constraint rigid_molecule rigid molecule


# Output data before minimization
write_data before_minimization.data


#velocity rigid_molecule create 5.0 12345 mom yes rot yes dist gaussian

# Perform minimization with rigid body constraint (keeps the geometry intact)
unfix rigid_constraint


# Unfix the rigid constraint after minimization

#fix rigid_constraint rigid_molecule rigid molecule

# Assign random velocities to the rigid molecule (not individual atoms)
#  velocity rigid_molecule create 1.0 12345 mom yes rot yes dist gaussian

# Apply a Langevin thermostat for temperature control during relaxation
#fix rigid_thermo rigid_molecule rigid/nvt molecule temp 5.0 5.0 1.0
fix rigid_thermo rigid_molecule rigid/small molecule langevin 5.0 5.0 0.1 428984
# Output the relaxed system


# Dump trajectory data for visualization
dump 1 all custom 10 relaxed_system.lammpstrj id type x y z mol

# Set timestep and thermo output
timestep 0.005                               # Set timestep
thermo 100
thermo_style custom step temp ke pe press

# Run the simulation
run 100000

# Output the relaxed system


dump 2 all custom 1 final_snapshot.lammpstrj id type x y z vx vy vz mol
run 1
