# Initialize
units lj
dimension 3 
atom_style molecular
boundary p p p

#pair_style hybrid lj/cut 2.5 gauss 2.5





# Define the simulation box

region my_box block 0 4.0 0 4.0 0 4.0
create_box 1 my_box




# Create atoms

create_atoms 1 random 3000 59049090 my_box 



# create_atoms 2 random 3000 90340893 my_box
