# DPD Fluid

variable T    equal 1.0
variable rc   equal 1.0
variable rcD  equal 1.0


units        lj
boundary     p p p
atom_style   atomic
dimension    3
newton       on
comm_modify  vel yes


### create box and configuration
variable     L equal 10
lattice      fcc 3.0
region       simBox block 0 ${L} 0 ${L} 0 ${L}
create_box   1 simBox


#create_atoms 1 region simBox
create_atoms 1 random 3000 12456 simBox


mass         1 1.0


pair_style       dpd ${T} ${rcD} 3854262
pair_coeff   1 1  78.0  4.5  1.0


run_style    verlet


velocity all create ${T} 68768932


thermo_style custom step time temp press
thermo       100


fix vikki_thermo_state all nvt temp 4 4 0.1  







# Equilibration phase
run          500000

# Compute MSD after equilibration



reset_timestep  0



compute msd_all all msd


fix msd_output all ave/time 100 1 100 c_msd_all file msd.dat mode vector






#dump 2 all custom 1 data.lammpstrj id type x y z vx vy vz


# Production run to measure MSD
run          500000




run 0
