# Defining essential variables

units lj 
dimension 3
atom_style molecular
boundary p p p 








# Creating simulation box

region my_box block 0 24.8 -10 10 -10 10
region my_shell_region_1 sphere  2.9775  0.0 0.0 2.977 side in
region my_shell_region_2 sphere  8.9425  0.0 0.0 2.977 side in
region my_shell_region_3 sphere 14.9425  0.0 0.0 2.977 side in
region my_shell_region_4 sphere 21.5725  0.0 0.0 2.977 side in


region my_shell_region_polymer sphere 2.9775 0.0 0.0 1 side in




create_box 3 my_box  bond/types 2  extra/bond/per/atom 12 extra/special/per/atom 12





# Creating the narrow regions and generating the particle such that initial particle distribution remains a delta function distribution


molecule single_shells shell_template_single_opening.mol
molecule double_shells shell_template_double_opening.mol
molecule pol polymer_template.mol toff 2 boff 1


create_atoms 0 single 2.98 0.0 0.0 mol double_shells 90843 rotate 90  0.0 1.0 0.0 
create_atoms 0 single 8.9425 0.0 0.0 mol double_shells 90843 rotate 90  0.0 1.0 0.0 
create_atoms 0 single 14.9425 0.0 0.0 mol double_shells 90843 rotate 90  0.0 1.0 0.0 
create_atoms 0 single 21.525 0.0 0.0 mol single_shells 90843 rotate 90  0.0 -1.0 0.0 

create_atoms 0 random 10 87910 my_shell_region_polymer mol pol 454336 




group particles type 2 3

group polymers type 3

bond_style harmonic
bond_coeff 1 1000.0 0.1
bond_coeff 2 100.0 1.0


# Setting up interaction parameters and the other variables

mass 1 1
mass 2 1
mass 3 0.1


pair_style hybrid lj/cut 2.0 soft 1.0

pair_coeff 1 1  lj/cut 0.01 0.05 0.05
pair_coeff 2 2  lj/cut 0.01 0.05 0.05
pair_coeff 1 2  lj/cut 0.01 0.3 0.3
pair_coeff 1 3  lj/cut 0.01 0.3 0.3
pair_coeff 2 3  lj/cut 0.01 0.3 0.3
pair_coeff 3 3  soft 1.0 1



comm_modify cutoff 2.0



# Creating initial velocity distribution at particular temperature

velocity all create 1.0 12345 







# Setting up Langevin thermostat and fixing integrator

fix my_thermo_stat_1 particles langevin 3  3  0.5 89080
compute regional_thermo_1 particles temp/region my_shell_region_1
fix_modify my_thermo_stat_1 temp regional_thermo_1


fix my_thermo_stat_2 particles langevin 3  3  0.5 890809
compute regional_thermo_2 particles temp/region my_shell_region_2
fix_modify my_thermo_stat_2 temp regional_thermo_2


fix my_thermo_stat_3 particles langevin 3  3  0.5 890809
compute regional_thermo_3 particles temp/region my_shell_region_3
fix_modify my_thermo_stat_3 temp regional_thermo_3


fix my_thermo_stat_4 particles langevin 3  3  0.5 890809
compute regional_thermo_4 particles temp/region my_shell_region_4
fix_modify my_thermo_stat_4 temp regional_thermo_4








fix integrator particles nve 







# Setting up time steps in lj unit achieved by each simulation steps

timestep 0.0005









# Setting up the parameters to be printed on the terminal

thermo 100
thermo_style custom step temp ke pe press



compute chunk_1 polymers chunk/atom bin/1d x lower 0.05 units reduced
compute myChunk1 polymers property/chunk chunk_1 count
fix 1 polymers ave/time 5 1 100 c_myChunk1 file bin_particles.lammpstrj mode vector

compute msd_pol polymers msd
fix msd_output all ave/time 100 1 100 c_msd_pol file msd.dat mode vector




# Exporting the data file 


dump 1 all custom 500 simulation_data.lammpstrj id type x y z






# Running the simulation

run 500000
