# Some variables 

variable T    equal 1.0
variable rc   equal 1.0
variable rcD  equal 1.0
variable  L   equal 10




# Basic simulation settings

units        lj
boundary     p p p
atom_style   atomic
dimension    3
newton       on
comm_modify  vel yes




# Create simulation box

region       simBox block 0 ${L} 0 ${L} 0 ${L}
create_box   1 simBox




# Create_atoms 1 in region simBox

create_atoms 1 random 3000 12456 simBox




# Defining the particles properties

mass         1 1.0




# Define the pairwise interaction style (DPD)

pair_style       dpd ${T} ${rcD} 3854262
pair_coeff   1   1  25.0  4.5  1.0




# Defining some simulation parameters and initiating velocity and timesteps

run_style    verlet
velocity all create ${T} 68768932
timestep 0.005




# Output thermodynamic quantities which shows on terminal

thermo_style custom step time temp press
thermo       100




# Apply the integrator with NVE ensemble (constant number of particles, volume, and energy)

fix 1 all nve




# Equilibration phase - run to allow the system to stabilize

run          100000
