# Binary DPD simulation: A and B in distinct regions to study mixing/demixing

# Defining some variables

variable T    equal 1.0
variable rc   equal 1.0
variable rcD  equal 1.0




# Defining essential parameters

units        lj
boundary     p p p
atom_style   atomic
dimension    3




# Defining some DPD specific parameters

newton       on
comm_modify  vel yes




### Define simulation box 

variable     Lx equal 20
variable     Ly equal 10
variable     Lz equal 10




# Specifying the region and creating the corresponding box

region       box_total block 0 ${Lx} 0 ${Ly} 0 ${Lz}
create_box   2 box_total  # Binary system with 2 types of particles




# Regions for particle distribution- two seperate regions within the box for particle type A and B

region       region_A block 0 10 0 ${Ly} 0 ${Lz}
region       region_B block 10 20 0 ${Ly} 0 ${Lz}




# Create particles in each region

create_atoms 1 random 3000 12345 region_A  # Type A: 3000 atoms in region A
create_atoms 2 random 3000 67890 region_B  # Type B: 3000 atoms in region B




# Defining the particle's properties and the interaction parameters

mass  1 1.0  # Mass of type A particles
mass  2 1.0  # Mass of type B particles

pair_style   dpd ${T} ${rcD} 3854262
pair_coeff   1 1 25.0 4.5 1.0  # Type A-A interactions
pair_coeff   1 2 45.0 4.5 1.0  # Type A-B interactions (adjust as needed)
pair_coeff   2 2 25.0 4.5 1.0  # Type B-B interactions




# Setting integration style

run_style    verlet




# Assigning the initial velocities

velocity all create ${T} 12345 dist gaussian



# Information to be printed on the terminal

thermo_style custom step time temp press
thermo       100




# Fixing an integrator for the velocity and the temperature update

fix 1 all nve




# Running for the equilibration phase

run          50000




# Reset time steps to 0

reset_timestep 0




# Output trajectory for visualization and analysis

dump 2 all custom 100 simulation_data.lammpstrj id type x y z vx vy vz




# Running for the production phase

run          50000

